NAME: random_points
TYPE: TSP
DIMENSION: 35
EDGE_WEIGHT_TYPE: EUC_2D
NODE_COORD_SECTION
1 935 344
2 564 294
3 14 419
4 278 831
5 23 993
6 790 570
7 494 925
8 269 596
9 767 497
10 880 932
11 807 967
12 379 85
13 806 632
14 995 426
15 91 157
16 550 604
17 288 687
18 155 126
19 948 987
20 555 286
21 577 80
22 143 545
23 49 833
24 135 516
25 569 510
26 797 847
27 752 288
28 37 196
29 596 958
30 398 75
31 580 99
32 542 867
33 714 109
34 60 204
35 63 764
EOF
